Version identifier: 22.1.0.0 | 2022-03-09 | 1a383f8ce
CPXPARAM_Read_DataCheck                          1
1 of 1 MIP starts provided solutions.
MIP start 'm1' defined initial solution with objective 63.0000.
Tried aggregator 3 times.
MIP Presolve eliminated 108670 rows and 9011 columns.
MIP Presolve modified 1201 coefficients.
Aggregator did 101327 substitutions.
Reduced MIP has 10143 rows, 103862 columns, and 218058 nonzeros.
Reduced MIP has 103822 binaries, 40 generals, 0 SOSs, and 0 indicators.
Presolve time = 1.34 sec. (1332.46 ticks)
Tried aggregator 1 time.
Detecting symmetries...
Reduced MIP has 10143 rows, 103862 columns, and 218058 nonzeros.
Reduced MIP has 103822 binaries, 40 generals, 0 SOSs, and 0 indicators.
Presolve time = 0.25 sec. (167.77 ticks)
Probing fixed 60 vars, tightened 0 bounds.
Probing changed sense of 13 constraints.
Probing time = 0.19 sec. (26.18 ticks)
Clique table members: 210282.
MIP emphasis: balance optimality and feasibility.
MIP search method: dynamic search.
Parallel mode: deterministic, using up to 8 threads.
Root relaxation solution time = 0.92 sec. (758.64 ticks)

        Nodes                                         Cuts/
   Node  Left     Objective  IInf  Best Integer    Best Bound    ItCnt     Gap

*     0+    0                           63.0000        0.0000           100.00%
      0     0       40.3645  7178       63.0000       40.3645       30   35.93%
      0     0       62.0000  1002       63.0000      Cuts: 39    13770    1.59%
      0     0       62.0000   971       63.0000      Cuts: 60    31625    1.59%

Repeating presolve.
Tried aggregator 3 times.
MIP Presolve eliminated 2303 rows and 67744 columns.
MIP Presolve modified 4 coefficients.
Aggregator did 1633 substitutions.
Reduced MIP has 6207 rows, 34485 columns, and 74972 nonzeros.
Reduced MIP has 34485 binaries, 0 generals, 0 SOSs, and 0 indicators.
Presolve time = 0.19 sec. (181.22 ticks)
Tried aggregator 2 times.
Detecting symmetries...
Aggregator did 3 substitutions.
Reduced MIP has 6204 rows, 34482 columns, and 74969 nonzeros.
Reduced MIP has 34482 binaries, 0 generals, 0 SOSs, and 0 indicators.
Presolve time = 0.07 sec. (63.92 ticks)
Represolve time = 0.36 sec. (333.68 ticks)

        Nodes                                         Cuts/
   Node  Left     Objective  IInf  Best Integer    Best Bound    ItCnt     Gap

      0     1  -1.00000e+37     0       63.0000       62.0000    31625    1.59%

Root node processing (before b&c):
  Real time             =   57.94 sec. (38617.08 ticks)
Parallel b&c, 8 threads:
  Real time             =    0.00 sec. (0.00 ticks)
  Sync time (average)   =    0.00 sec.
  Wait time (average)   =    0.00 sec.
                          ------------
Total (root+branch&cut) =   57.94 sec. (38617.08 ticks)
